c Random generated cnf formula, satisfiable: false
p cnf 10 50
-4 3 -7 0
-4 -9 -2 0
1 -7 -9 0
1 2 -10 0
7 3 -9 0
9 -7 10 0
-10 9 6 0
4 -2 -9 0
6 5 2 0
-8 5 1 0
-7 -3 1 0
4 2 -1 0
-5 7 -6 0
6 -4 -1 0
-6 -8 -1 0
-1 -8 -5 0
-8 6 -4 0
9 7 5 0
7 -6 3 0
-7 -6 -2 0
4 -6 -5 0
3 1 -9 0
1 -8 7 0
-10 4 7 0
8 4 -10 0
-10 -8 -3 0
-10 6 -5 0
2 8 -7 0
4 -5 -7 0
7 9 -3 0
-8 -2 10 0
-9 8 -7 0
10 1 9 0
-2 8 10 0
5 9 3 0
-6 3 -4 0
7 1 -10 0
10 1 8 0
-1 9 -4 0
2 1 5 0
4 -5 1 0
1 2 7 0
-2 8 4 0
-2 -9 5 0
1 6 -9 0
7 2 8 0
4 -7 9 0
4 2 6 0
-9 2 10 0
7 -4 1 0
